(assert (forall ((pkt_0_8_a_0  Int  )(pkt_1_9_b_0  Int  )(pkt_2_a_c_0  Int  )(pkt_3_b_d_0  Int  )(pkt_4_c_e_0  Int  )(state_group_0_state_0_d_f_0  Int  )(state_group_0_state_1_e_10_0  Int  )) (let ((_n0 state_group_0_state_1_e_10_0 ))
(let ((_n1 pkt_4_c_e_0 ))
(let ((_n2 (=   _n1   _n0 ) ))
(let ((_n3 state_group_0_state_0_d_f_0 ))
(let ((_n4 pkt_3_b_d_0 ))
(let ((_n5 (<   _n4   _n3 ) ))
(let ((_n6 (not  _n5 ) ))
(let ((_n7 (and   _n6   _n2 ) ))
(let ((_n8 (and   _n6   _n7 ) ))
(let ((_n9 (or   _n5   _n8 ) ))
(let ((_n10 (ite  _n9   _n4   _n3  ) ))
(let ((_n11 true ))
(let ((_n12 (-  _n4 )))
(let ((_n13 (+   _n3   _n12 ) ))
(let ((_n14 (<   _n13   (ite  _n11  1 0) ) ))
(let ((_n15 false ))
(let ((_n16 (ite  _n14   (ite  _n15  1 0)   _n4  ) ))
(let ((_n17 (ite  _n14   (ite  _n15  1 0)   _n3  ) ))
(let ((_n18 (+   _n17   _n16 ) ))
(let ((_n19 (=   _n18   (ite  _n15  1 0) ) ))
(let ((_n20 (not  _n19 ) ))
(let ((_n21 (not  _n14 ) ))
(let ((_n22 (and   _n21   _n20 ) ))
(let ((_n23 (not  _n22 ) ))
(let ((_n24 (or   _n23   _n14 ) ))
(let ((_n25 (ite  _n24   (ite  _n15  1 0)   _n4  ) ))
(let ((_n26 (-  _n25 )))
(let ((_n27 (ite  _n24   (ite  _n15  1 0)   _n3  ) ))
(let ((_n28 (+   _n27   _n26 ) ))
(let ((_n29 (<   _n28   (ite  _n15  1 0) ) ))
(let ((_n30 (ite  _n24   _n15   _n29  ) ))
(let ((_n31 (or   _n30   _n24 ) ))
(let ((_n32 (ite  _n31   (ite  _n15  1 0)   _n4  ) ))
(let ((_n33 (ite  _n31   _n3   (ite  _n15  1 0)  ) ))
(let ((_n34 (+   _n33   _n32 ) ))
(let ((_n35 (not  _n30 ) ))
(let ((_n36 (or   _n35   _n24 ) ))
(let ((_n37 (ite  _n36   (ite  _n15  1 0)   _n4  ) ))
(let ((_n38 (-  _n37 )))
(let ((_n39 2 ))
(let ((_n40 (ite  _n36   (ite  _n15  1 0)   _n39  ) ))
(let ((_n41 (+   _n40   _n38 ) ))
(let ((_n42 (ite  _n36   (ite  _n15  1 0)   _n41  ) ))
(let ((_n43 (+   _n3   _n42 ) ))
(let ((_n44 (ite (=  (ite  _n30  1 0)  1)  _n43   _n34  ) ))
(let ((_n45 (ite (=  (ite  _n22  1 0)  1)  _n44   _n3  ) ))
(let ((_n46 (ite  _n14   _n1   (ite  _n15  1 0)  ) ))
(let ((_n47 (-  _n46 )))
(let ((_n48 (ite  _n14   _n0   (ite  _n15  1 0)  ) ))
(let ((_n49 (+   _n48   _n47 ) ))
(let ((_n50 (=   _n49   (ite  _n15  1 0) ) ))
(let ((_n51 (and   _n14   _n50 ) ))
(let ((_n52 (and   _n51   _n14 ) ))
(let ((_n53 (ite  _n52   _n4   (ite  _n15  1 0)  ) ))
(let ((_n54 (ite  _n52   (ite  _n15  1 0)   _n3  ) ))
(let ((_n55 (+   _n54   _n53 ) ))
(let ((_n56 (ite (=  (ite  _n51  1 0)  1)  _n55   _n3  ) ))
(let ((_n57 (ite (=  (ite  _n14  1 0)  1)  _n56   _n45  ) ))
(let ((_n58 (=   _n57   _n10 ) ))
(let ((_n60 (ite  _n5   _n1   _n0  ) ))
(let ((_n61 (ite  _n31   (ite  _n15  1 0)   _n1  ) ))
(let ((_n62 (ite  _n31   _n0   (ite  _n15  1 0)  ) ))
(let ((_n63 (+   _n62   _n61 ) ))
(let ((_n64 (ite (=  (ite  _n30  1 0)  1)  _n0   _n63  ) ))
(let ((_n65 (ite (=  (ite  _n22  1 0)  1)  _n64   _n0  ) ))
(let ((_n66 (ite  _n52   _n1   (ite  _n15  1 0)  ) ))
(let ((_n67 (ite  _n52   (ite  _n15  1 0)   _n0  ) ))
(let ((_n68 (+   _n67   _n66 ) ))
(let ((_n69 (ite (=  (ite  _n51  1 0)  1)  _n68   _n0  ) ))
(let ((_n70 (ite (=  (ite  _n14  1 0)  1)  _n69   _n65  ) ))
(let ((_n71 (=   _n70   _n60 ) ))
(let ((_n73 pkt_0_8_a_0 ))
(let ((_n74 (ite (=  _n73  0)  _n73   (ite  _n15  1 0)  ) ))
(let ((_n75 (ite (=  _n73  0)  _n74   _n73  ) ))
(let ((_n76 (=   _n75   _n73 ) ))
(let ((_n78 (<   _n73   (ite  _n15  1 0) ) ))
(let ((_n79 (ite  _n78   (ite  _n15  1 0)   _n73  ) ))
(let ((_n80 (=   _n73   _n79 ) ))
(let ((_n82 (ite (=  _n73  0)  (ite  _n15  1 0)   _n73  ) ))
(let ((_n83 (=   _n82   _n79 ) ))
(let ((_n85 pkt_1_9_b_0 ))
(let ((_n86 (ite (=  _n85  0)  _n4   (ite  _n15  1 0)  ) ))
(let ((_n87 (ite (=  _n85  0)  _n86   _n4  ) ))
(let ((_n88 (=   _n87   _n4 ) ))
(let ((_n90 pkt_2_a_c_0 ))
(implies  (and (and (>= state_group_0_state_1_e_10_0 0) (< state_group_0_state_1_e_10_0 1024 ))  (and (and (>= state_group_0_state_0_d_f_0 0) (< state_group_0_state_0_d_f_0 1024 ))  (and (and (>= pkt_4_c_e_0 0) (< pkt_4_c_e_0 1024 ))  (and (and (>= pkt_3_b_d_0 0) (< pkt_3_b_d_0 1024 ))  (and (and (>= pkt_2_a_c_0 0) (< pkt_2_a_c_0 1024 ))  (and (and (>= pkt_1_9_b_0 0) (< pkt_1_9_b_0 1024 ))  (and (>= pkt_0_8_a_0 0) (< pkt_0_8_a_0 1024 )) ) ) ) ) ) )   (and  _n58  _n71  _n76  _n80  _n83  _n88 )  ))))))))))))))))))))))))))))))))))))))))))))))))))))))))))))))))))))))))))))))))))))))))
(check-sat)
(get-model)
(exit)